19 44
24 15
5 34
27 12
8 22
28 19
30 13
16 31
7 7
15 26
22 12
5 30
15 23
13 42
11 20
17 50
13 5
14 7
5 38
10 49
18 37
15 13
8 50
14 44
20 27
16 32
19 49
19 50
7 7
8 21
23 17
22 12
13 16
18 26
9 23
26 41
13 2
22 9
23 19
27 14
9 45
29 15
29 49
6 10
30 24
23 19
28 44
15 20
26 29
17 23
